m = 3; % number of couriers
n = 4; % number of packages

l = [5, 3, 3]; % maximum carriable weight per courier
s = [1, 2, 1, 1]; % weight of each package

D = % distance matrix 
	 [| 4, 1, 2, 1, 1
	 | 1, 3, 2, 1, 4
	 | 2, 2, 4, 2, 1
	 | 1, 1, 2, 4, 4
	 | 2, 4, 1, 3, 1
	 |];